##-------------------------------------------
## This file was created by mesh2input
## Date: 2026-09-18
##-------------------------------------------
Mesh2HRTF 1.3.0
##
Head-Related Transfer Functions
##
## Controlparameter I
0 0 0 0 7 0
##
## Controlparameter II
1 160 0.000001 0.00e+00 1 0 0
##
## Load Frequency Curve 
0 161
0.000000  0.000000e+00  0.0
0.000001  5.000000e+01  0.0
0.000002  1.000000e+02  0.0
0.000003  1.500000e+02  0.0
0.000004  2.000000e+02  0.0
0.000005  2.500000e+02  0.0
0.000006  3.000000e+02  0.0
0.000007  3.500000e+02  0.0
0.000008  4.000000e+02  0.0
0.000009  4.500000e+02  0.0
0.000010  5.000000e+02  0.0
0.000011  5.500000e+02  0.0
0.000012  6.000000e+02  0.0
0.000013  6.500000e+02  0.0
0.000014  7.000000e+02  0.0
0.000015  7.500000e+02  0.0
0.000016  8.000000e+02  0.0
0.000017  8.500000e+02  0.0
0.000018  9.000000e+02  0.0
0.000019  9.500000e+02  0.0
0.000020  1.000000e+03  0.0
0.000021  1.050000e+03  0.0
0.000022  1.100000e+03  0.0
0.000023  1.150000e+03  0.0
0.000024  1.200000e+03  0.0
0.000025  1.250000e+03  0.0
0.000026  1.300000e+03  0.0
0.000027  1.350000e+03  0.0
0.000028  1.400000e+03  0.0
0.000029  1.450000e+03  0.0
0.000030  1.500000e+03  0.0
0.000031  1.550000e+03  0.0
0.000032  1.600000e+03  0.0
0.000033  1.650000e+03  0.0
0.000034  1.700000e+03  0.0
0.000035  1.750000e+03  0.0
0.000036  1.800000e+03  0.0
0.000037  1.850000e+03  0.0
0.000038  1.900000e+03  0.0
0.000039  1.950000e+03  0.0
0.000040  2.000000e+03  0.0
0.000041  2.050000e+03  0.0
0.000042  2.100000e+03  0.0
0.000043  2.150000e+03  0.0
0.000044  2.200000e+03  0.0
0.000045  2.250000e+03  0.0
0.000046  2.300000e+03  0.0
0.000047  2.350000e+03  0.0
0.000048  2.400000e+03  0.0
0.000049  2.450000e+03  0.0
0.000050  2.500000e+03  0.0
0.000051  2.550000e+03  0.0
0.000052  2.600000e+03  0.0
0.000053  2.650000e+03  0.0
0.000054  2.700000e+03  0.0
0.000055  2.750000e+03  0.0
0.000056  2.800000e+03  0.0
0.000057  2.850000e+03  0.0
0.000058  2.900000e+03  0.0
0.000059  2.950000e+03  0.0
0.000060  3.000000e+03  0.0
0.000061  3.050000e+03  0.0
0.000062  3.100000e+03  0.0
0.000063  3.150000e+03  0.0
0.000064  3.200000e+03  0.0
0.000065  3.250000e+03  0.0
0.000066  3.300000e+03  0.0
0.000067  3.350000e+03  0.0
0.000068  3.400000e+03  0.0
0.000069  3.450000e+03  0.0
0.000070  3.500000e+03  0.0
0.000071  3.550000e+03  0.0
0.000072  3.600000e+03  0.0
0.000073  3.650000e+03  0.0
0.000074  3.700000e+03  0.0
0.000075  3.750000e+03  0.0
0.000076  3.800000e+03  0.0
0.000077  3.850000e+03  0.0
0.000078  3.900000e+03  0.0
0.000079  3.950000e+03  0.0
0.000080  4.000000e+03  0.0
0.000081  4.050000e+03  0.0
0.000082  4.100000e+03  0.0
0.000083  4.150000e+03  0.0
0.000084  4.200000e+03  0.0
0.000085  4.250000e+03  0.0
0.000086  4.300000e+03  0.0
0.000087  4.350000e+03  0.0
0.000088  4.400000e+03  0.0
0.000089  4.450000e+03  0.0
0.000090  4.500000e+03  0.0
0.000091  4.550000e+03  0.0
0.000092  4.600000e+03  0.0
0.000093  4.650000e+03  0.0
0.000094  4.700000e+03  0.0
0.000095  4.750000e+03  0.0
0.000096  4.800000e+03  0.0
0.000097  4.850000e+03  0.0
0.000098  4.900000e+03  0.0
0.000099  4.950000e+03  0.0
0.000100  5.000000e+03  0.0
0.000101  5.050000e+03  0.0
0.000102  5.100000e+03  0.0
0.000103  5.150000e+03  0.0
0.000104  5.200000e+03  0.0
0.000105  5.250000e+03  0.0
0.000106  5.300000e+03  0.0
0.000107  5.350000e+03  0.0
0.000108  5.400000e+03  0.0
0.000109  5.450000e+03  0.0
0.000110  5.500000e+03  0.0
0.000111  5.550000e+03  0.0
0.000112  5.600000e+03  0.0
0.000113  5.650000e+03  0.0
0.000114  5.700000e+03  0.0
0.000115  5.750000e+03  0.0
0.000116  5.800000e+03  0.0
0.000117  5.850000e+03  0.0
0.000118  5.900000e+03  0.0
0.000119  5.950000e+03  0.0
0.000120  6.000000e+03  0.0
0.000121  6.050000e+03  0.0
0.000122  6.100000e+03  0.0
0.000123  6.150000e+03  0.0
0.000124  6.200000e+03  0.0
0.000125  6.250000e+03  0.0
0.000126  6.300000e+03  0.0
0.000127  6.350000e+03  0.0
0.000128  6.400000e+03  0.0
0.000129  6.450000e+03  0.0
0.000130  6.500000e+03  0.0
0.000131  6.550000e+03  0.0
0.000132  6.600000e+03  0.0
0.000133  6.650000e+03  0.0
0.000134  6.700000e+03  0.0
0.000135  6.750000e+03  0.0
0.000136  6.800000e+03  0.0
0.000137  6.850000e+03  0.0
0.000138  6.900000e+03  0.0
0.000139  6.950000e+03  0.0
0.000140  7.000000e+03  0.0
0.000141  7.050000e+03  0.0
0.000142  7.100000e+03  0.0
0.000143  7.150000e+03  0.0
0.000144  7.200000e+03  0.0
0.000145  7.250000e+03  0.0
0.000146  7.300000e+03  0.0
0.000147  7.350000e+03  0.0
0.000148  7.400000e+03  0.0
0.000149  7.450000e+03  0.0
0.000150  7.500000e+03  0.0
0.000151  7.550000e+03  0.0
0.000152  7.600000e+03  0.0
0.000153  7.650000e+03  0.0
0.000154  7.700000e+03  0.0
0.000155  7.750000e+03  0.0
0.000156  7.800000e+03  0.0
0.000157  7.850000e+03  0.0
0.000158  7.900000e+03  0.0
0.000159  7.950000e+03  0.0
0.000160  8.000000e+03  0.0
##
## 1. Main Parameters I
2 8816 4412 0 0 2 1 4 0                 #  8th integer: 4=ML-FMM,  1= SL-FMM, 0= Full BEM (very slow, accuracy up) 
#2 8816 4412 0 0 2 1 0 0
##
## 2. Main Parameters II
#0 1 0 0.025000e+00 0 0 0
0 1 0 0.10000e+00 0 0 0    #  0.1 maximum value for sphere radius a=0.1 m   
##
## 3. Main Parameters III
0 0 0 0
##
## 4. Main Parameters IV
346.18 1.1839e+00 1.0 0.0e+00 0.0 e+00 0.0e+00 0.0e+00
##
NODES
../../ObjectMeshes/Reference/Nodes.txt
../../EvaluationGrids/UV_Sphere_10m/Nodes.txt
##
ELEMENTS
../../ObjectMeshes/Reference/Elements.txt
../../EvaluationGrids/UV_Sphere_10m/Elements.txt
##
# SYMMETRY
# 0 0 0
# 0.0000e+00 0.0000e+00 0.0000e+00
##
BOUNDARY
# rigid sphere — no vibrating elements
RETU
#
POINT SOURCES
1  0.102  0.0  0.0  1.0  -1  0.0  -1
##
#CURVES
##
POST PROCESS
##
END
